networks/zoo_74_1065/zoo_74_1065.txt
Number of groups: 69
Flow 5: {31 6} {6 43} 
Flow 8: {1 31} {31 9} 
Flow 20: {1 7} {7 25} {25 62} 
Flow 30: {31 3} {3 40} 
Flow 32: {2 7} {7 5} {5 42} 
Flow 47: {2 31} {31 26} {26 24} 
Flow 50: {26 27} 
Flow 58: {3 31} {31 2} {2 39} 
Flow 72: {3 7} 
Flow 97: {4 7} {7 44} 
Flow 108: {26 19} {19 56} 
Flow 117: {31 29} 
Flow 118: {4 31} {31 30} {30 67} 
Flow 131: {5 7} {7 31} 
Flow 150: {6 31} {31 4} 
Flow 162: {6 7} 
Flow 242: {8 7} {7 30} 
Flow 251: {9 7} {7 4} {4 41} 
Flow 271: {9 31} {31 68} 
Flow 284: {7 9} {9 46} 
Flow 294: {10 7} {7 22} 
Flow 303: {10 31} {31 32} {32 69} 
Flow 311: {11 31} {31 10} {10 47} 
Flow 338: {12 35} {35 21} {21 58} 
Flow 377: {13 35} {35 22} {22 33} {33 70} 
Flow 411: {14 8} {8 31} {31 34} {34 71} 
Flow 414: {8 35} {35 37} 
Flow 437: {15 20} {20 25} {25 27} {27 64} 
Flow 463: {16 20} {20 24} 
Flow 465: {20 26} {26 63} 
Flow 476: {17 25} {25 19} 
Flow 488: {18 31} {31 8} 
Flow 510: {31 35} {35 72} 
Flow 514: {19 25} {25 7} {7 2} 
Flow 534: {19 24} 
Flow 540: {19 26} {26 31} 
Flow 628: {22 35} {35 12} {12 49} 
Flow 638: {22 23} 
Flow 646: {33 32} 
Flow 654: {7 3} 
Flow 668: {23 35} {35 25} {25 20} {20 57} 
Flow 680: {23 22} {22 37} {37 74} 
Flow 696: {24 20} {20 16} {16 53} 
Flow 699: {24 19} 
Flow 712: {24 26} 
Flow 714: {24 25} {25 35} {35 36} 
Flow 748: {7 10} {10 34} 
Flow 768: {26 25} {25 17} {17 54} 
Flow 795: {27 26} 
Flow 800: {27 25} {25 24} {24 61} 
Flow 807: {21 35} {35 7} {7 1} {1 38} 
Flow 817: {35 31} {31 18} {18 55} 
Flow 821: {28 21} {21 22} {22 59} 
Flow 824: {25 26} 
Flow 850: {29 7} {7 35} {35 23} {23 60} 
Flow 859: {29 31} 
Flow 864: {30 7} {7 6} 
Flow 868: {30 31} {31 11} {11 48} 
Flow 910: {31 22} {22 21} {21 28} {28 65} 
Flow 919: {32 31} {31 7} 
Flow 930: {33 22} {22 7} {7 8} {8 14} {14 51} 
Flow 944: {34 31} {31 1} 
Flow 951: {34 10} {10 35} {35 13} {13 50} 
Flow 953: {26 20} {20 15} {15 52} 
Flow 994: {7 29} {29 66} 
Flow 1011: {36 35} {35 10} 
Flow 1023: {36 22} {22 31} 
Flow 1038: {37 35} {35 8} {8 45} 
Flow 1065: {37 22} {22 36} {36 73} 
Time taken running everything: 32 seconds
